; SMT 2
; Generated for Z3
(set-info :source "")
(set-option :produce-models true)

(declare-fun |inv_35| ((_ BitVec 32) (_ BitVec 32) (_ BitVec 32) (_ BitVec 32) (_ BitVec 32) (_ BitVec 32) (_ BitVec 32) (_ BitVec 32) (_ BitVec 64) (_ BitVec 64) (_ BitVec 64) (Array (_ BitVec 64) (_ BitVec 64)) (Array (_ BitVec 64) (Array (_ BitVec 64) (_ BitVec 64))) ) Bool)

; find_symbols
(declare-fun |tmp| () (_ BitVec 64))
(assert (forall ((|memor_0| (Array (_ BitVec 64) (Array (_ BitVec 64) (_ BitVec 64)))) (|alloc_0| (Array (_ BitVec 64) (_ BitVec 64))) (|main::$tmp::return_value_nondet_int| (_ BitVec 32)) (|main::$tmp::return_value_nondet_int$0| (_ BitVec 32)) (|main::$tmp::return_value_nondet_int$1| (_ BitVec 32)) (|main::$tmp::return_value_nondet_int$2| (_ BitVec 32)) (|main::$tmp::return_value_nondet_int$3| (_ BitVec 32)) (|main::$tmp::return_value_nondet_int$4| (_ BitVec 32)) (|main::$tmp::return_value_nondet_int$5| (_ BitVec 32)) (|main::1::tmp| (_ BitVec 32)) (|main::1::L| (_ BitVec 64)) (|main::1::i| (_ BitVec 64)) (|main::1::j| (_ BitVec 64)))
  (=> true 
    (|inv_35| |main::$tmp::return_value_nondet_int| |main::$tmp::return_value_nondet_int$0| |main::$tmp::return_value_nondet_int$1| |main::$tmp::return_value_nondet_int$2| |main::$tmp::return_value_nondet_int$3| |main::$tmp::return_value_nondet_int$4| |main::$tmp::return_value_nondet_int$5| |main::1::tmp| |main::1::L| |main::1::i| |main::1::j| |alloc_0| |memor_0|))))

(declare-fun |inv_34| ((_ BitVec 32) (_ BitVec 32) (_ BitVec 32) (_ BitVec 32) (_ BitVec 32) (_ BitVec 64) (_ BitVec 64) (_ BitVec 64) (Array (_ BitVec 64) (_ BitVec 64)) (Array (_ BitVec 64) (Array (_ BitVec 64) (_ BitVec 64))) ) Bool)

(assert (forall ((|memor_0| (Array (_ BitVec 64) (Array (_ BitVec 64) (_ BitVec 64)))) (|alloc_0| (Array (_ BitVec 64) (_ BitVec 64))) (|main::$tmp::return_value_nondet_int$0_2| (_ BitVec 32)) (|main::$tmp::return_value_nondet_int$0_3| (_ BitVec 32)) (|main::$tmp::return_value_nondet_int$1_1| (_ BitVec 32)) (|main::$tmp::return_value_nondet_int$1_2| (_ BitVec 32)) (|main::$tmp::return_value_nondet_int$1_3| (_ BitVec 32)) (|main::$tmp::return_value_nondet_int$2| (_ BitVec 32)) (|main::$tmp::return_value_nondet_int$2_1| (_ BitVec 32)) (|main::$tmp::return_value_nondet_int$2_2| (_ BitVec 32)) (|main::$tmp::return_value_nondet_int$2_3| (_ BitVec 32)) (|main::$tmp::return_value_nondet_int$3| (_ BitVec 32)) (|main::$tmp::return_value_nondet_int$3_1| (_ BitVec 32)) (|main::$tmp::return_value_nondet_int$3_2| (_ BitVec 32)) (|main::$tmp::return_value_nondet_int$3_3| (_ BitVec 32)) (|main::$tmp::return_value_nondet_int$4| (_ BitVec 32)) (|main::$tmp::return_value_nondet_int$4_1| (_ BitVec 32)) (|main::$tmp::return_value_nondet_int$4_2| (_ BitVec 32)) (|main::$tmp::return_value_nondet_int$4_3| (_ BitVec 32)) (|main::$tmp::return_value_nondet_int$5| (_ BitVec 32)) (|main::$tmp::return_value_nondet_int$5_1| (_ BitVec 32)) (|main::$tmp::return_value_nondet_int$5_2| (_ BitVec 32)) (|main::$tmp::return_value_nondet_int$5_3| (_ BitVec 32)) (|main::$tmp::return_value_nondet_int_3| (_ BitVec 32)) (|main::1::tmp| (_ BitVec 32)) (|main::1::tmp_1| (_ BitVec 32)) (|main::1::tmp_2| (_ BitVec 32)) (|main::1::tmp_3| (_ BitVec 32)) (|main::1::L| (_ BitVec 64)) (|main::1::L_1| (_ BitVec 64)) (|main::1::L_2| (_ BitVec 64)) (|main::1::L_3| (_ BitVec 64)) (|main::1::i| (_ BitVec 64)) (|main::1::i_1| (_ BitVec 64)) (|main::1::i_2| (_ BitVec 64)) (|main::1::i_3| (_ BitVec 64)) (|main::1::j| (_ BitVec 64)) (|main::1::j_1| (_ BitVec 64)) (|main::1::j_2| (_ BitVec 64)) (|main::1::j_3| (_ BitVec 64)))
  (=> (and 
    (|inv_35| |main::$tmp::return_value_nondet_int_3| |main::$tmp::return_value_nondet_int$0_3| |main::$tmp::return_value_nondet_int$1_3| |main::$tmp::return_value_nondet_int$2_3| |main::$tmp::return_value_nondet_int$3_3| |main::$tmp::return_value_nondet_int$4_3| |main::$tmp::return_value_nondet_int$5_3| |main::1::tmp_3| |main::1::L_3| |main::1::i_3| |main::1::j_3| |alloc_0| |memor_0|)
       (= |main::$tmp::return_value_nondet_int$0_3| |main::$tmp::return_value_nondet_int$0_2|)
       (= |main::$tmp::return_value_nondet_int$1_3| |main::$tmp::return_value_nondet_int$1_2|)
       (= |main::$tmp::return_value_nondet_int$2_3| |main::$tmp::return_value_nondet_int$2_2|)
       (= |main::$tmp::return_value_nondet_int$3_3| |main::$tmp::return_value_nondet_int$3_2|)
       (= |main::$tmp::return_value_nondet_int$4_3| |main::$tmp::return_value_nondet_int$4_2|)
       (= |main::$tmp::return_value_nondet_int$5_3| |main::$tmp::return_value_nondet_int$5_2|)
       (= |main::1::tmp_3| |main::1::tmp_2|)
       (= ((_ sign_extend 32) |main::$tmp::return_value_nondet_int_3|) |main::1::L_2|)
       (= |main::1::i_3| |main::1::i_2|)
       (= |main::1::j_3| |main::1::j_2|)
       (= |main::$tmp::return_value_nondet_int$1_2| |main::$tmp::return_value_nondet_int$1_1|)
       (= |main::$tmp::return_value_nondet_int$2_2| |main::$tmp::return_value_nondet_int$2_1|)
       (= |main::$tmp::return_value_nondet_int$3_2| |main::$tmp::return_value_nondet_int$3_1|)
       (= |main::$tmp::return_value_nondet_int$4_2| |main::$tmp::return_value_nondet_int$4_1|)
       (= |main::$tmp::return_value_nondet_int$5_2| |main::$tmp::return_value_nondet_int$5_1|)
       (= |main::1::tmp_2| |main::1::tmp_1|)
       (= |main::1::L_2| |main::1::L_1|)
       (= ((_ sign_extend 32) |main::$tmp::return_value_nondet_int$0_2|) |main::1::i_1|)
       (= |main::1::j_2| |main::1::j_1|)
       (= |main::$tmp::return_value_nondet_int$2_1| |main::$tmp::return_value_nondet_int$2|)
       (= |main::$tmp::return_value_nondet_int$3_1| |main::$tmp::return_value_nondet_int$3|)
       (= |main::$tmp::return_value_nondet_int$4_1| |main::$tmp::return_value_nondet_int$4|)
       (= |main::$tmp::return_value_nondet_int$5_1| |main::$tmp::return_value_nondet_int$5|)
       (= |main::1::tmp_1| |main::1::tmp|)
       (= |main::1::L_1| |main::1::L|)
       (= |main::1::i_1| |main::1::i|)
       (= ((_ sign_extend 32) |main::$tmp::return_value_nondet_int$1_1|) |main::1::j|)) 
    (|inv_34| |main::$tmp::return_value_nondet_int$2| |main::$tmp::return_value_nondet_int$3| |main::$tmp::return_value_nondet_int$4| |main::$tmp::return_value_nondet_int$5| |main::1::tmp| |main::1::L| |main::1::i| |main::1::j| |alloc_0| |memor_0|))))

(assert (forall ((|memor_0| (Array (_ BitVec 64) (Array (_ BitVec 64) (_ BitVec 64)))) (|alloc_0| (Array (_ BitVec 64) (_ BitVec 64))) (|main::$tmp::return_value_nondet_int$2| (_ BitVec 32)) (|main::$tmp::return_value_nondet_int$3| (_ BitVec 32)) (|main::$tmp::return_value_nondet_int$4| (_ BitVec 32)) (|main::$tmp::return_value_nondet_int$5| (_ BitVec 32)) (|main::1::tmp| (_ BitVec 32)) (|main::1::L| (_ BitVec 64)) (|main::1::i| (_ BitVec 64)) (|main::1::j| (_ BitVec 64)))
  (=> (and 
    (|inv_34| |main::$tmp::return_value_nondet_int$2| |main::$tmp::return_value_nondet_int$3| |main::$tmp::return_value_nondet_int$4| |main::$tmp::return_value_nondet_int$5| |main::1::tmp| |main::1::L| |main::1::i| |main::1::j| |alloc_0| |memor_0|)
       (not (and (and (bvugt |main::1::L| (_ bv10 64))
       (bvult |main::1::i| |main::1::L|))
       (bvult |main::1::j| |main::1::L|)))) true)))

(declare-fun |inv_33| ((_ BitVec 32) (_ BitVec 32) (_ BitVec 32) (_ BitVec 32) (_ BitVec 32) (_ BitVec 64) (Array (_ BitVec 64) (_ BitVec 64)) (Array (_ BitVec 64) (Array (_ BitVec 64) (_ BitVec 64))) ) Bool)

(assert (forall ((|memor_0| (Array (_ BitVec 64) (Array (_ BitVec 64) (_ BitVec 64)))) (|alloc_0| (Array (_ BitVec 64) (_ BitVec 64))) (|main::$tmp::return_value_nondet_int$2| (_ BitVec 32)) (|main::$tmp::return_value_nondet_int$3| (_ BitVec 32)) (|main::$tmp::return_value_nondet_int$4| (_ BitVec 32)) (|main::$tmp::return_value_nondet_int$5| (_ BitVec 32)) (|main::1::tmp| (_ BitVec 32)) (|main::1::L| (_ BitVec 64)) (|main::1::i| (_ BitVec 64)) (|main::1::j| (_ BitVec 64)))
  (=> (and 
    (|inv_34| |main::$tmp::return_value_nondet_int$2| |main::$tmp::return_value_nondet_int$3| |main::$tmp::return_value_nondet_int$4| |main::$tmp::return_value_nondet_int$5| |main::1::tmp| |main::1::L| |main::1::i| |main::1::j| |alloc_0| |memor_0|)
       (and (and (bvugt |main::1::L| (_ bv10 64))
       (bvult |main::1::i| |main::1::L|))
       (bvult |main::1::j| |main::1::L|))) 
    (|inv_33| |main::$tmp::return_value_nondet_int$2| |main::$tmp::return_value_nondet_int$3| |main::$tmp::return_value_nondet_int$4| |main::$tmp::return_value_nondet_int$5| |main::1::tmp| |main::1::i| |alloc_0| |memor_0|))))

(declare-fun |inv_32| ((_ BitVec 32) (_ BitVec 32) (_ BitVec 32) (_ BitVec 32) (_ BitVec 32) (_ BitVec 64) (Array (_ BitVec 64) (_ BitVec 64)) (Array (_ BitVec 64) (Array (_ BitVec 64) (_ BitVec 64))) ) Bool)

(assert (forall ((|memor_0| (Array (_ BitVec 64) (Array (_ BitVec 64) (_ BitVec 64)))) (|alloc_0| (Array (_ BitVec 64) (_ BitVec 64))) (|main::$tmp::return_value_nondet_int$2| (_ BitVec 32)) (|main::$tmp::return_value_nondet_int$3| (_ BitVec 32)) (|main::$tmp::return_value_nondet_int$4| (_ BitVec 32)) (|main::$tmp::return_value_nondet_int$5| (_ BitVec 32)) (|main::1::tmp| (_ BitVec 32)) (|main::1::i| (_ BitVec 64)))
  (=> 
    (|inv_33| |main::$tmp::return_value_nondet_int$2| |main::$tmp::return_value_nondet_int$3| |main::$tmp::return_value_nondet_int$4| |main::$tmp::return_value_nondet_int$5| |main::1::tmp| |main::1::i| |alloc_0| |memor_0|) 
    (|inv_32| |main::$tmp::return_value_nondet_int$2| |main::$tmp::return_value_nondet_int$3| |main::$tmp::return_value_nondet_int$4| |main::$tmp::return_value_nondet_int$5| |main::1::tmp| |main::1::i| |alloc_0| |memor_0|))))

(declare-fun |inv_30| ((_ BitVec 32) (_ BitVec 32) (_ BitVec 32) (_ BitVec 32) (_ BitVec 32) (_ BitVec 64) (Array (_ BitVec 64) (_ BitVec 64)) (Array (_ BitVec 64) (Array (_ BitVec 64) (_ BitVec 64))) ) Bool)

(assert (forall ((|memor_0| (Array (_ BitVec 64) (Array (_ BitVec 64) (_ BitVec 64)))) (|alloc_0| (Array (_ BitVec 64) (_ BitVec 64))) (|main::$tmp::return_value_nondet_int$2| (_ BitVec 32)) (|main::$tmp::return_value_nondet_int$3| (_ BitVec 32)) (|main::$tmp::return_value_nondet_int$4| (_ BitVec 32)) (|main::$tmp::return_value_nondet_int$5| (_ BitVec 32)) (|main::1::tmp| (_ BitVec 32)) (|main::1::i| (_ BitVec 64)))
  (=> 
    (|inv_32| |main::$tmp::return_value_nondet_int$2| |main::$tmp::return_value_nondet_int$3| |main::$tmp::return_value_nondet_int$4| |main::$tmp::return_value_nondet_int$5| |main::1::tmp| |main::1::i| |alloc_0| |memor_0|) 
    (|inv_30| |main::$tmp::return_value_nondet_int$2| |main::$tmp::return_value_nondet_int$3| |main::$tmp::return_value_nondet_int$4| |main::$tmp::return_value_nondet_int$5| |main::1::tmp| |main::1::i| |alloc_0| |memor_0|))))

(declare-fun |inv_31| ((_ BitVec 32) (_ BitVec 32) (_ BitVec 32) (_ BitVec 32) (_ BitVec 32) (_ BitVec 64) (Array (_ BitVec 64) (_ BitVec 64)) (Array (_ BitVec 64) (Array (_ BitVec 64) (_ BitVec 64))) ) Bool)

(assert (forall ((|memor_0| (Array (_ BitVec 64) (Array (_ BitVec 64) (_ BitVec 64)))) (|alloc_0| (Array (_ BitVec 64) (_ BitVec 64))) (|main::$tmp::return_value_nondet_int$2| (_ BitVec 32)) (|main::$tmp::return_value_nondet_int$3| (_ BitVec 32)) (|main::$tmp::return_value_nondet_int$4| (_ BitVec 32)) (|main::$tmp::return_value_nondet_int$5| (_ BitVec 32)) (|main::1::tmp| (_ BitVec 32)) (|main::1::i| (_ BitVec 64)))
  (=> (and 
    (|inv_32| |main::$tmp::return_value_nondet_int$2| |main::$tmp::return_value_nondet_int$3| |main::$tmp::return_value_nondet_int$4| |main::$tmp::return_value_nondet_int$5| |main::1::tmp| |main::1::i| |alloc_0| |memor_0|)
       (not (not (= |main::$tmp::return_value_nondet_int$2| (_ bv0 32))))) 
    (|inv_31| |main::$tmp::return_value_nondet_int$2| |main::$tmp::return_value_nondet_int$3| |main::$tmp::return_value_nondet_int$4| |main::$tmp::return_value_nondet_int$5| |main::1::tmp| |main::1::i| |alloc_0| |memor_0|))))

(declare-fun |inv_28| ((_ BitVec 32) (_ BitVec 32) (_ BitVec 32) (_ BitVec 32) (_ BitVec 64) (Array (_ BitVec 64) (_ BitVec 64)) (Array (_ BitVec 64) (Array (_ BitVec 64) (_ BitVec 64))) ) Bool)

(assert (forall ((|memor_0| (Array (_ BitVec 64) (Array (_ BitVec 64) (_ BitVec 64)))) (|alloc_0| (Array (_ BitVec 64) (_ BitVec 64))) (|alloc_1| (Array (_ BitVec 64) (_ BitVec 64))) (|main::$tmp::return_value_nondet_int$2| (_ BitVec 32)) (|main::$tmp::return_value_nondet_int$2_1| (_ BitVec 32)) (|main::$tmp::return_value_nondet_int$3| (_ BitVec 32)) (|main::$tmp::return_value_nondet_int$3_1| (_ BitVec 32)) (|main::$tmp::return_value_nondet_int$4| (_ BitVec 32)) (|main::$tmp::return_value_nondet_int$4_1| (_ BitVec 32)) (|main::$tmp::return_value_nondet_int$5| (_ BitVec 32)) (|main::$tmp::return_value_nondet_int$5_1| (_ BitVec 32)) (|main::1::tmp| (_ BitVec 32)) (|main::1::tmp_1| (_ BitVec 32)) (|main::1::i| (_ BitVec 64)) (|main::1::i_1| (_ BitVec 64)))
  (=> (and 
    (|inv_31| |main::$tmp::return_value_nondet_int$2_1| |main::$tmp::return_value_nondet_int$3_1| |main::$tmp::return_value_nondet_int$4_1| |main::$tmp::return_value_nondet_int$5_1| |main::1::tmp_1| |main::1::i_1| |alloc_1| |memor_0|)
       (= |alloc_0| (store |alloc_1| (_ bv6053561456450 64) (_ bv6053561456450 64)))
       (= |main::$tmp::return_value_nondet_int$2_1| |main::$tmp::return_value_nondet_int$2|)
       (= |main::$tmp::return_value_nondet_int$3_1| |main::$tmp::return_value_nondet_int$3|)
       (= |main::$tmp::return_value_nondet_int$4_1| |main::$tmp::return_value_nondet_int$4|)
       (= |main::$tmp::return_value_nondet_int$5_1| |main::$tmp::return_value_nondet_int$5|)
       (= (_ bv0 32) |main::1::tmp|)
       (= |main::1::i_1| |main::1::i|)) 
    (|inv_28| |main::$tmp::return_value_nondet_int$3| |main::$tmp::return_value_nondet_int$4| |main::$tmp::return_value_nondet_int$5| |main::1::tmp| |main::1::i| |alloc_0| |memor_0|))))

(declare-fun |inv_29| ((_ BitVec 32) (_ BitVec 32) (_ BitVec 32) (_ BitVec 32) (_ BitVec 64) (Array (_ BitVec 64) (_ BitVec 64)) (Array (_ BitVec 64) (Array (_ BitVec 64) (_ BitVec 64))) ) Bool)

(assert (forall ((|memor_0| (Array (_ BitVec 64) (Array (_ BitVec 64) (_ BitVec 64)))) (|alloc_0| (Array (_ BitVec 64) (_ BitVec 64))) (|main::$tmp::return_value_nondet_int$2| (_ BitVec 32)) (|main::$tmp::return_value_nondet_int$3| (_ BitVec 32)) (|main::$tmp::return_value_nondet_int$4| (_ BitVec 32)) (|main::$tmp::return_value_nondet_int$5| (_ BitVec 32)) (|main::1::tmp| (_ BitVec 32)) (|main::1::i| (_ BitVec 64)))
  (=> (and 
    (|inv_30| |main::$tmp::return_value_nondet_int$2| |main::$tmp::return_value_nondet_int$3| |main::$tmp::return_value_nondet_int$4| |main::$tmp::return_value_nondet_int$5| |main::1::tmp| |main::1::i| |alloc_0| |memor_0|)
       (not (= |main::$tmp::return_value_nondet_int$2| (_ bv0 32)))) 
    (|inv_29| |main::$tmp::return_value_nondet_int$3| |main::$tmp::return_value_nondet_int$4| |main::$tmp::return_value_nondet_int$5| |main::1::tmp| |main::1::i| |alloc_0| |memor_0|))))

(assert (forall ((|memor_0| (Array (_ BitVec 64) (Array (_ BitVec 64) (_ BitVec 64)))) (|alloc_0| (Array (_ BitVec 64) (_ BitVec 64))) (|alloc_1| (Array (_ BitVec 64) (_ BitVec 64))) (|main::$tmp::return_value_nondet_int$3| (_ BitVec 32)) (|main::$tmp::return_value_nondet_int$3_1| (_ BitVec 32)) (|main::$tmp::return_value_nondet_int$4| (_ BitVec 32)) (|main::$tmp::return_value_nondet_int$4_1| (_ BitVec 32)) (|main::$tmp::return_value_nondet_int$5| (_ BitVec 32)) (|main::$tmp::return_value_nondet_int$5_1| (_ BitVec 32)) (|main::1::tmp| (_ BitVec 32)) (|main::1::tmp_1| (_ BitVec 32)) (|main::1::i| (_ BitVec 64)) (|main::1::i_1| (_ BitVec 64)))
  (=> (and 
    (|inv_29| |main::$tmp::return_value_nondet_int$3_1| |main::$tmp::return_value_nondet_int$4_1| |main::$tmp::return_value_nondet_int$5_1| |main::1::tmp_1| |main::1::i_1| |alloc_1| |memor_0|)
       (= |alloc_0| (store |alloc_1| (_ bv9363835545496 64) (_ bv9363835545496 64)))
       (= |main::$tmp::return_value_nondet_int$3_1| |main::$tmp::return_value_nondet_int$3|)
       (= |main::$tmp::return_value_nondet_int$4_1| |main::$tmp::return_value_nondet_int$4|)
       (= |main::$tmp::return_value_nondet_int$5_1| |main::$tmp::return_value_nondet_int$5|)
       (= (_ bv1 32) |main::1::tmp|)
       (= |main::1::i_1| |main::1::i|)) 
    (|inv_28| |main::$tmp::return_value_nondet_int$3| |main::$tmp::return_value_nondet_int$4| |main::$tmp::return_value_nondet_int$5| |main::1::tmp| |main::1::i| |alloc_0| |memor_0|))))

(declare-fun |inv_27| ((_ BitVec 32) (_ BitVec 32) (_ BitVec 32) (_ BitVec 32) (_ BitVec 64) (Array (_ BitVec 64) (_ BitVec 64)) (Array (_ BitVec 64) (Array (_ BitVec 64) (_ BitVec 64))) ) Bool)

(assert (forall ((|memor_0| (Array (_ BitVec 64) (Array (_ BitVec 64) (_ BitVec 64)))) (|alloc_0| (Array (_ BitVec 64) (_ BitVec 64))) (|main::$tmp::return_value_nondet_int$3| (_ BitVec 32)) (|main::$tmp::return_value_nondet_int$4| (_ BitVec 32)) (|main::$tmp::return_value_nondet_int$5| (_ BitVec 32)) (|main::1::tmp| (_ BitVec 32)) (|main::1::i| (_ BitVec 64)))
  (=> 
    (|inv_28| |main::$tmp::return_value_nondet_int$3| |main::$tmp::return_value_nondet_int$4| |main::$tmp::return_value_nondet_int$5| |main::1::tmp| |main::1::i| |alloc_0| |memor_0|) 
    (|inv_27| |main::$tmp::return_value_nondet_int$3| |main::$tmp::return_value_nondet_int$4| |main::$tmp::return_value_nondet_int$5| |main::1::tmp| |main::1::i| |alloc_0| |memor_0|))))

(declare-fun |inv_21| ((_ BitVec 32) (_ BitVec 32) (_ BitVec 32) (_ BitVec 64) (Array (_ BitVec 64) (_ BitVec 64)) (Array (_ BitVec 64) (Array (_ BitVec 64) (_ BitVec 64))) ) Bool)

(assert (forall ((|memor_0| (Array (_ BitVec 64) (Array (_ BitVec 64) (_ BitVec 64)))) (|alloc_0| (Array (_ BitVec 64) (_ BitVec 64))) (|main::$tmp::return_value_nondet_int$3| (_ BitVec 32)) (|main::$tmp::return_value_nondet_int$4| (_ BitVec 32)) (|main::$tmp::return_value_nondet_int$5| (_ BitVec 32)) (|main::1::tmp| (_ BitVec 32)) (|main::1::i| (_ BitVec 64)))
  (=> 
    (|inv_27| |main::$tmp::return_value_nondet_int$3| |main::$tmp::return_value_nondet_int$4| |main::$tmp::return_value_nondet_int$5| |main::1::tmp| |main::1::i| |alloc_0| |memor_0|) 
    (|inv_21| |main::$tmp::return_value_nondet_int$3| |main::$tmp::return_value_nondet_int$5| |main::1::tmp| |main::1::i| |alloc_0| |memor_0|))))

(declare-fun |inv_26| ((_ BitVec 32) (_ BitVec 32) (_ BitVec 32) (_ BitVec 32) (_ BitVec 64) (Array (_ BitVec 64) (_ BitVec 64)) (Array (_ BitVec 64) (Array (_ BitVec 64) (_ BitVec 64))) ) Bool)

(assert (forall ((|memor_0| (Array (_ BitVec 64) (Array (_ BitVec 64) (_ BitVec 64)))) (|alloc_0| (Array (_ BitVec 64) (_ BitVec 64))) (|main::$tmp::return_value_nondet_int$3| (_ BitVec 32)) (|main::$tmp::return_value_nondet_int$4| (_ BitVec 32)) (|main::$tmp::return_value_nondet_int$5| (_ BitVec 32)) (|main::1::tmp| (_ BitVec 32)) (|main::1::i| (_ BitVec 64)))
  (=> (and 
    (|inv_27| |main::$tmp::return_value_nondet_int$3| |main::$tmp::return_value_nondet_int$4| |main::$tmp::return_value_nondet_int$5| |main::1::tmp| |main::1::i| |alloc_0| |memor_0|)
       (not (not (= |main::1::tmp| (_ bv0 32))))) 
    (|inv_26| |main::$tmp::return_value_nondet_int$3| |main::$tmp::return_value_nondet_int$4| |main::$tmp::return_value_nondet_int$5| |main::1::tmp| |main::1::i| |alloc_0| |memor_0|))))

(declare-fun |inv_24| ((_ BitVec 32) (_ BitVec 32) (_ BitVec 32) (_ BitVec 64) (Array (_ BitVec 64) (_ BitVec 64)) (Array (_ BitVec 64) (Array (_ BitVec 64) (_ BitVec 64))) ) Bool)

(assert (forall ((|memor_0| (Array (_ BitVec 64) (Array (_ BitVec 64) (_ BitVec 64)))) (|memor_1| (Array (_ BitVec 64) (Array (_ BitVec 64) (_ BitVec 64)))) (|alloc_0| (Array (_ BitVec 64) (_ BitVec 64))) (|main::$tmp::return_value_nondet_int$3| (_ BitVec 32)) (|main::$tmp::return_value_nondet_int$4| (_ BitVec 32)) (|main::$tmp::return_value_nondet_int$5| (_ BitVec 32)) (|main::1::tmp| (_ BitVec 32)) (|main::1::i| (_ BitVec 64)))
  (=> (and 
    (|inv_26| |main::$tmp::return_value_nondet_int$3| |main::$tmp::return_value_nondet_int$4| |main::$tmp::return_value_nondet_int$5| |main::1::tmp| |main::1::i| |alloc_0| |memor_1|)
       (= |memor_0| (store |memor_1| (select |alloc_0| (_ bv6053561456450 64)) (store (select |memor_1| (select |alloc_0| (_ bv6053561456450 64))) |main::1::i| ((_ sign_extend 32) |main::$tmp::return_value_nondet_int$4|))))) 
    (|inv_24| |main::$tmp::return_value_nondet_int$3| |main::$tmp::return_value_nondet_int$5| |main::1::tmp| |main::1::i| |alloc_0| |memor_0|))))

(declare-fun |inv_22| ((_ BitVec 32) (_ BitVec 32) (_ BitVec 32) (_ BitVec 64) (Array (_ BitVec 64) (_ BitVec 64)) (Array (_ BitVec 64) (Array (_ BitVec 64) (_ BitVec 64))) ) Bool)

(assert (forall ((|memor_0| (Array (_ BitVec 64) (Array (_ BitVec 64) (_ BitVec 64)))) (|alloc_0| (Array (_ BitVec 64) (_ BitVec 64))) (|main::$tmp::return_value_nondet_int$3| (_ BitVec 32)) (|main::$tmp::return_value_nondet_int$5| (_ BitVec 32)) (|main::1::tmp| (_ BitVec 32)) (|main::1::i| (_ BitVec 64)))
  (=> (and 
    (|inv_24| |main::$tmp::return_value_nondet_int$3| |main::$tmp::return_value_nondet_int$5| |main::1::tmp| |main::1::i| |alloc_0| |memor_0|)
       (not (bvsge (select (select |memor_0| (select |alloc_0| (_ bv6053561456450 64))) |main::1::i|) (_ bv1 64)))) 
    (|inv_22| |main::$tmp::return_value_nondet_int$3| |main::$tmp::return_value_nondet_int$5| |main::1::tmp| |main::1::i| |alloc_0| |memor_0|))))

(declare-fun |inv_23| ((_ BitVec 32) (_ BitVec 32) (_ BitVec 32) (_ BitVec 64) (Array (_ BitVec 64) (_ BitVec 64)) (Array (_ BitVec 64) (Array (_ BitVec 64) (_ BitVec 64))) ) Bool)

(assert (forall ((|memor_0| (Array (_ BitVec 64) (Array (_ BitVec 64) (_ BitVec 64)))) (|alloc_0| (Array (_ BitVec 64) (_ BitVec 64))) (|main::$tmp::return_value_nondet_int$3| (_ BitVec 32)) (|main::$tmp::return_value_nondet_int$5| (_ BitVec 32)) (|main::1::tmp| (_ BitVec 32)) (|main::1::i| (_ BitVec 64)))
  (=> (and 
    (|inv_24| |main::$tmp::return_value_nondet_int$3| |main::$tmp::return_value_nondet_int$5| |main::1::tmp| |main::1::i| |alloc_0| |memor_0|)
       (bvsge (select (select |memor_0| (select |alloc_0| (_ bv6053561456450 64))) |main::1::i|) (_ bv1 64))) 
    (|inv_23| |main::$tmp::return_value_nondet_int$3| |main::$tmp::return_value_nondet_int$5| |main::1::tmp| |main::1::i| |alloc_0| |memor_0|))))

(assert (forall ((|memor_0| (Array (_ BitVec 64) (Array (_ BitVec 64) (_ BitVec 64)))) (|memor_1| (Array (_ BitVec 64) (Array (_ BitVec 64) (_ BitVec 64)))) (|alloc_0| (Array (_ BitVec 64) (_ BitVec 64))) (|main::$tmp::return_value_nondet_int$3| (_ BitVec 32)) (|main::$tmp::return_value_nondet_int$5| (_ BitVec 32)) (|main::1::tmp| (_ BitVec 32)) (|main::1::i| (_ BitVec 64)))
  (=> (and 
    (|inv_23| |main::$tmp::return_value_nondet_int$3| |main::$tmp::return_value_nondet_int$5| |main::1::tmp| |main::1::i| |alloc_0| |memor_1|)
       (= |memor_0| (store |memor_1| (select |alloc_0| (_ bv6053561456450 64)) (store (select |memor_1| (select |alloc_0| (_ bv6053561456450 64))) |main::1::i| (bvneg (select (select |memor_1| (select |alloc_0| (_ bv6053561456450 64))) |main::1::i|)))))) 
    (|inv_22| |main::$tmp::return_value_nondet_int$3| |main::$tmp::return_value_nondet_int$5| |main::1::tmp| |main::1::i| |alloc_0| |memor_0|))))

(declare-fun |inv_15| ((_ BitVec 32) (_ BitVec 32) (_ BitVec 64) (Array (_ BitVec 64) (_ BitVec 64)) (Array (_ BitVec 64) (Array (_ BitVec 64) (_ BitVec 64))) ) Bool)

(assert (forall ((|memor_0| (Array (_ BitVec 64) (Array (_ BitVec 64) (_ BitVec 64)))) (|alloc_0| (Array (_ BitVec 64) (_ BitVec 64))) (|main::$tmp::return_value_nondet_int$3| (_ BitVec 32)) (|main::$tmp::return_value_nondet_int$5| (_ BitVec 32)) (|main::1::tmp| (_ BitVec 32)) (|main::1::i| (_ BitVec 64)))
  (=> 
    (|inv_22| |main::$tmp::return_value_nondet_int$3| |main::$tmp::return_value_nondet_int$5| |main::1::tmp| |main::1::i| |alloc_0| |memor_0|) 
    (|inv_15| |main::$tmp::return_value_nondet_int$5| |main::1::tmp| |main::1::i| |alloc_0| |memor_0|))))

(declare-fun |inv_20| ((_ BitVec 32) (_ BitVec 32) (_ BitVec 32) (_ BitVec 64) (Array (_ BitVec 64) (_ BitVec 64)) (Array (_ BitVec 64) (Array (_ BitVec 64) (_ BitVec 64))) ) Bool)

(assert (forall ((|memor_0| (Array (_ BitVec 64) (Array (_ BitVec 64) (_ BitVec 64)))) (|alloc_0| (Array (_ BitVec 64) (_ BitVec 64))) (|main::$tmp::return_value_nondet_int$3| (_ BitVec 32)) (|main::$tmp::return_value_nondet_int$5| (_ BitVec 32)) (|main::1::tmp| (_ BitVec 32)) (|main::1::i| (_ BitVec 64)))
  (=> (and 
    (|inv_21| |main::$tmp::return_value_nondet_int$3| |main::$tmp::return_value_nondet_int$5| |main::1::tmp| |main::1::i| |alloc_0| |memor_0|)
       (not (= |main::1::tmp| (_ bv0 32)))) 
    (|inv_20| |main::$tmp::return_value_nondet_int$3| |main::$tmp::return_value_nondet_int$5| |main::1::tmp| |main::1::i| |alloc_0| |memor_0|))))

(declare-fun |inv_18| ((_ BitVec 32) (_ BitVec 32) (_ BitVec 64) (Array (_ BitVec 64) (_ BitVec 64)) (Array (_ BitVec 64) (Array (_ BitVec 64) (_ BitVec 64))) ) Bool)

(assert (forall ((|memor_0| (Array (_ BitVec 64) (Array (_ BitVec 64) (_ BitVec 64)))) (|memor_1| (Array (_ BitVec 64) (Array (_ BitVec 64) (_ BitVec 64)))) (|alloc_0| (Array (_ BitVec 64) (_ BitVec 64))) (|main::$tmp::return_value_nondet_int$3| (_ BitVec 32)) (|main::$tmp::return_value_nondet_int$5| (_ BitVec 32)) (|main::1::tmp| (_ BitVec 32)) (|main::1::i| (_ BitVec 64)))
  (=> (and 
    (|inv_20| |main::$tmp::return_value_nondet_int$3| |main::$tmp::return_value_nondet_int$5| |main::1::tmp| |main::1::i| |alloc_0| |memor_1|)
       (= |memor_0| (store |memor_1| (select |alloc_0| (_ bv9363835545496 64)) (store (select |memor_1| (select |alloc_0| (_ bv9363835545496 64))) |main::1::i| ((_ sign_extend 32) |main::$tmp::return_value_nondet_int$3|))))) 
    (|inv_18| |main::$tmp::return_value_nondet_int$5| |main::1::tmp| |main::1::i| |alloc_0| |memor_0|))))

(declare-fun |inv_16| ((_ BitVec 32) (_ BitVec 32) (_ BitVec 64) (Array (_ BitVec 64) (_ BitVec 64)) (Array (_ BitVec 64) (Array (_ BitVec 64) (_ BitVec 64))) ) Bool)

(assert (forall ((|memor_0| (Array (_ BitVec 64) (Array (_ BitVec 64) (_ BitVec 64)))) (|alloc_0| (Array (_ BitVec 64) (_ BitVec 64))) (|main::$tmp::return_value_nondet_int$5| (_ BitVec 32)) (|main::1::tmp| (_ BitVec 32)) (|main::1::i| (_ BitVec 64)))
  (=> (and 
    (|inv_18| |main::$tmp::return_value_nondet_int$5| |main::1::tmp| |main::1::i| |alloc_0| |memor_0|)
       (not (not (bvsge (select (select |memor_0| (select |alloc_0| (_ bv9363835545496 64))) |main::1::i|) (_ bv0 64))))) 
    (|inv_16| |main::$tmp::return_value_nondet_int$5| |main::1::tmp| |main::1::i| |alloc_0| |memor_0|))))

(declare-fun |inv_17| ((_ BitVec 32) (_ BitVec 32) (_ BitVec 64) (Array (_ BitVec 64) (_ BitVec 64)) (Array (_ BitVec 64) (Array (_ BitVec 64) (_ BitVec 64))) ) Bool)

(assert (forall ((|memor_0| (Array (_ BitVec 64) (Array (_ BitVec 64) (_ BitVec 64)))) (|alloc_0| (Array (_ BitVec 64) (_ BitVec 64))) (|main::$tmp::return_value_nondet_int$5| (_ BitVec 32)) (|main::1::tmp| (_ BitVec 32)) (|main::1::i| (_ BitVec 64)))
  (=> (and 
    (|inv_18| |main::$tmp::return_value_nondet_int$5| |main::1::tmp| |main::1::i| |alloc_0| |memor_0|)
       (not (bvsge (select (select |memor_0| (select |alloc_0| (_ bv9363835545496 64))) |main::1::i|) (_ bv0 64)))) 
    (|inv_17| |main::$tmp::return_value_nondet_int$5| |main::1::tmp| |main::1::i| |alloc_0| |memor_0|))))

(assert (forall ((|memor_0| (Array (_ BitVec 64) (Array (_ BitVec 64) (_ BitVec 64)))) (|memor_1| (Array (_ BitVec 64) (Array (_ BitVec 64) (_ BitVec 64)))) (|alloc_0| (Array (_ BitVec 64) (_ BitVec 64))) (|main::$tmp::return_value_nondet_int$5| (_ BitVec 32)) (|main::1::tmp| (_ BitVec 32)) (|main::1::i| (_ BitVec 64)))
  (=> (and 
    (|inv_17| |main::$tmp::return_value_nondet_int$5| |main::1::tmp| |main::1::i| |alloc_0| |memor_1|)
       (= |memor_0| (store |memor_1| (select |alloc_0| (_ bv9363835545496 64)) (store (select |memor_1| (select |alloc_0| (_ bv9363835545496 64))) |main::1::i| (bvneg (select (select |memor_1| (select |alloc_0| (_ bv9363835545496 64))) |main::1::i|)))))) 
    (|inv_16| |main::$tmp::return_value_nondet_int$5| |main::1::tmp| |main::1::i| |alloc_0| |memor_0|))))

(assert (forall ((|memor_0| (Array (_ BitVec 64) (Array (_ BitVec 64) (_ BitVec 64)))) (|alloc_0| (Array (_ BitVec 64) (_ BitVec 64))) (|main::$tmp::return_value_nondet_int$5| (_ BitVec 32)) (|main::1::tmp| (_ BitVec 32)) (|main::1::i| (_ BitVec 64)))
  (=> 
    (|inv_16| |main::$tmp::return_value_nondet_int$5| |main::1::tmp| |main::1::i| |alloc_0| |memor_0|) 
    (|inv_15| |main::$tmp::return_value_nondet_int$5| |main::1::tmp| |main::1::i| |alloc_0| |memor_0|))))

(declare-fun |inv_14| ((_ BitVec 32) (_ BitVec 32) (_ BitVec 64) (Array (_ BitVec 64) (_ BitVec 64)) (Array (_ BitVec 64) (Array (_ BitVec 64) (_ BitVec 64))) ) Bool)

(assert (forall ((|memor_0| (Array (_ BitVec 64) (Array (_ BitVec 64) (_ BitVec 64)))) (|alloc_0| (Array (_ BitVec 64) (_ BitVec 64))) (|main::$tmp::return_value_nondet_int$5| (_ BitVec 32)) (|main::1::tmp| (_ BitVec 32)) (|main::1::i| (_ BitVec 64)))
  (=> 
    (|inv_15| |main::$tmp::return_value_nondet_int$5| |main::1::tmp| |main::1::i| |alloc_0| |memor_0|) 
    (|inv_14| |main::$tmp::return_value_nondet_int$5| |main::1::tmp| |main::1::i| |alloc_0| |memor_0|))))

(declare-fun |inv_12| ((_ BitVec 32) (_ BitVec 32) (_ BitVec 64) (Array (_ BitVec 64) (_ BitVec 64)) (Array (_ BitVec 64) (Array (_ BitVec 64) (_ BitVec 64))) ) Bool)

(assert (forall ((|memor_0| (Array (_ BitVec 64) (Array (_ BitVec 64) (_ BitVec 64)))) (|alloc_0| (Array (_ BitVec 64) (_ BitVec 64))) (|main::$tmp::return_value_nondet_int$5| (_ BitVec 32)) (|main::1::tmp| (_ BitVec 32)) (|main::1::i| (_ BitVec 64)))
  (=> 
    (|inv_14| |main::$tmp::return_value_nondet_int$5| |main::1::tmp| |main::1::i| |alloc_0| |memor_0|) 
    (|inv_12| |main::$tmp::return_value_nondet_int$5| |main::1::tmp| |main::1::i| |alloc_0| |memor_0|))))

(declare-fun |inv_13| ((_ BitVec 32) (_ BitVec 32) (_ BitVec 64) (Array (_ BitVec 64) (_ BitVec 64)) (Array (_ BitVec 64) (Array (_ BitVec 64) (_ BitVec 64))) ) Bool)

(assert (forall ((|memor_0| (Array (_ BitVec 64) (Array (_ BitVec 64) (_ BitVec 64)))) (|alloc_0| (Array (_ BitVec 64) (_ BitVec 64))) (|main::$tmp::return_value_nondet_int$5| (_ BitVec 32)) (|main::1::tmp| (_ BitVec 32)) (|main::1::i| (_ BitVec 64)))
  (=> (and 
    (|inv_14| |main::$tmp::return_value_nondet_int$5| |main::1::tmp| |main::1::i| |alloc_0| |memor_0|)
       (not (not (= |main::$tmp::return_value_nondet_int$5| (_ bv0 32))))) 
    (|inv_13| |main::$tmp::return_value_nondet_int$5| |main::1::tmp| |main::1::i| |alloc_0| |memor_0|))))

(declare-fun |inv_10| ((_ BitVec 32) (_ BitVec 64) (Array (_ BitVec 64) (_ BitVec 64)) (Array (_ BitVec 64) (Array (_ BitVec 64) (_ BitVec 64))) ) Bool)

(assert (forall ((|memor_0| (Array (_ BitVec 64) (Array (_ BitVec 64) (_ BitVec 64)))) (|alloc_0| (Array (_ BitVec 64) (_ BitVec 64))) (|alloc_1| (Array (_ BitVec 64) (_ BitVec 64))) (|main::$tmp::return_value_nondet_int$5| (_ BitVec 32)) (|main::1::tmp| (_ BitVec 32)) (|main::1::i| (_ BitVec 64)))
  (=> (and 
    (|inv_13| |main::$tmp::return_value_nondet_int$5| |main::1::tmp| |main::1::i| |alloc_1| |memor_0|)
       (= |alloc_0| (store |alloc_1| (_ bv9363835545496 64) (select |alloc_1| (_ bv6053561456450 64))))) 
    (|inv_10| |main::1::tmp| |main::1::i| |alloc_0| |memor_0|))))

(declare-fun |inv_11| ((_ BitVec 32) (_ BitVec 64) (Array (_ BitVec 64) (_ BitVec 64)) (Array (_ BitVec 64) (Array (_ BitVec 64) (_ BitVec 64))) ) Bool)

(assert (forall ((|memor_0| (Array (_ BitVec 64) (Array (_ BitVec 64) (_ BitVec 64)))) (|alloc_0| (Array (_ BitVec 64) (_ BitVec 64))) (|main::$tmp::return_value_nondet_int$5| (_ BitVec 32)) (|main::1::tmp| (_ BitVec 32)) (|main::1::i| (_ BitVec 64)))
  (=> (and 
    (|inv_12| |main::$tmp::return_value_nondet_int$5| |main::1::tmp| |main::1::i| |alloc_0| |memor_0|)
       (not (= |main::$tmp::return_value_nondet_int$5| (_ bv0 32)))) 
    (|inv_11| |main::1::tmp| |main::1::i| |alloc_0| |memor_0|))))

(assert (forall ((|memor_0| (Array (_ BitVec 64) (Array (_ BitVec 64) (_ BitVec 64)))) (|alloc_0| (Array (_ BitVec 64) (_ BitVec 64))) (|alloc_1| (Array (_ BitVec 64) (_ BitVec 64))) (|main::1::tmp| (_ BitVec 32)) (|main::1::i| (_ BitVec 64)))
  (=> (and 
    (|inv_11| |main::1::tmp| |main::1::i| |alloc_1| |memor_0|)
       (= |alloc_0| (store |alloc_1| (_ bv6053561456450 64) (select |alloc_1| (_ bv9363835545496 64))))) 
    (|inv_10| |main::1::tmp| |main::1::i| |alloc_0| |memor_0|))))

(declare-fun |inv_9| ((_ BitVec 32) (_ BitVec 64) (Array (_ BitVec 64) (_ BitVec 64)) (Array (_ BitVec 64) (Array (_ BitVec 64) (_ BitVec 64))) ) Bool)

(assert (forall ((|memor_0| (Array (_ BitVec 64) (Array (_ BitVec 64) (_ BitVec 64)))) (|alloc_0| (Array (_ BitVec 64) (_ BitVec 64))) (|main::1::tmp| (_ BitVec 32)) (|main::1::i| (_ BitVec 64)))
  (=> 
    (|inv_10| |main::1::tmp| |main::1::i| |alloc_0| |memor_0|) 
    (|inv_9| |main::1::tmp| |main::1::i| |alloc_0| |memor_0|))))

(declare-fun |inv_5| ((_ BitVec 32) (_ BitVec 64) (Array (_ BitVec 64) (_ BitVec 64)) (Array (_ BitVec 64) (Array (_ BitVec 64) (_ BitVec 64))) ) Bool)

(assert (forall ((|memor_0| (Array (_ BitVec 64) (Array (_ BitVec 64) (_ BitVec 64)))) (|alloc_0| (Array (_ BitVec 64) (_ BitVec 64))) (|main::1::tmp| (_ BitVec 32)) (|main::1::i| (_ BitVec 64)))
  (=> 
    (|inv_9| |main::1::tmp| |main::1::i| |alloc_0| |memor_0|) 
    (|inv_5| |main::1::tmp| |main::1::i| |alloc_0| |memor_0|))))

(declare-fun |inv_7| ((_ BitVec 32) (_ BitVec 64) (Array (_ BitVec 64) (_ BitVec 64)) (Array (_ BitVec 64) (Array (_ BitVec 64) (_ BitVec 64))) ) Bool)

(assert (forall ((|memor_0| (Array (_ BitVec 64) (Array (_ BitVec 64) (_ BitVec 64)))) (|alloc_0| (Array (_ BitVec 64) (_ BitVec 64))) (|main::1::tmp| (_ BitVec 32)) (|main::1::i| (_ BitVec 64)))
  (=> (and 
    (|inv_9| |main::1::tmp| |main::1::i| |alloc_0| |memor_0|)
       (not (not (= |main::1::tmp| (_ bv0 32))))) 
    (|inv_7| |main::1::tmp| |main::1::i| |alloc_0| |memor_0|))))

(assert (forall ((|memor_0| (Array (_ BitVec 64) (Array (_ BitVec 64) (_ BitVec 64)))) (|alloc_0| (Array (_ BitVec 64) (_ BitVec 64))) (|main::1::tmp| (_ BitVec 32)) (|main::1::i| (_ BitVec 64)))
  (=> (and 
    (|inv_7| |main::1::tmp| |main::1::i| |alloc_0| |memor_0|)
       (not (bvsle (select (select |memor_0| (select |alloc_0| (_ bv9363835545496 64))) |main::1::i|) (_ bv0 64)))) false)))

(declare-fun |inv_6| ((_ BitVec 32) (_ BitVec 64) (Array (_ BitVec 64) (_ BitVec 64)) (Array (_ BitVec 64) (Array (_ BitVec 64) (_ BitVec 64))) ) Bool)

(assert (forall ((|memor_0| (Array (_ BitVec 64) (Array (_ BitVec 64) (_ BitVec 64)))) (|alloc_0| (Array (_ BitVec 64) (_ BitVec 64))) (|main::1::tmp| (_ BitVec 32)) (|main::1::i| (_ BitVec 64)))
  (=> (and 
    (|inv_7| |main::1::tmp| |main::1::i| |alloc_0| |memor_0|)
       (bvsle (select (select |memor_0| (select |alloc_0| (_ bv9363835545496 64))) |main::1::i|) (_ bv0 64))) 
    (|inv_6| |main::1::tmp| |main::1::i| |alloc_0| |memor_0|))))

(declare-fun |inv_1| ((Array (_ BitVec 64) (_ BitVec 64)) (Array (_ BitVec 64) (Array (_ BitVec 64) (_ BitVec 64))) ) Bool)

(assert (forall ((|memor_0| (Array (_ BitVec 64) (Array (_ BitVec 64) (_ BitVec 64)))) (|alloc_0| (Array (_ BitVec 64) (_ BitVec 64))) (|main::1::tmp| (_ BitVec 32)) (|main::1::i| (_ BitVec 64)))
  (=> 
    (|inv_6| |main::1::tmp| |main::1::i| |alloc_0| |memor_0|) 
    (|inv_1| |alloc_0| |memor_0|))))

(declare-fun |inv_3| ((_ BitVec 64) (Array (_ BitVec 64) (_ BitVec 64)) (Array (_ BitVec 64) (Array (_ BitVec 64) (_ BitVec 64))) ) Bool)

(assert (forall ((|memor_0| (Array (_ BitVec 64) (Array (_ BitVec 64) (_ BitVec 64)))) (|alloc_0| (Array (_ BitVec 64) (_ BitVec 64))) (|main::1::tmp| (_ BitVec 32)) (|main::1::i| (_ BitVec 64)))
  (=> (and 
    (|inv_5| |main::1::tmp| |main::1::i| |alloc_0| |memor_0|)
       (not (= |main::1::tmp| (_ bv0 32)))) 
    (|inv_3| |main::1::i| |alloc_0| |memor_0|))))

(assert (forall ((|memor_0| (Array (_ BitVec 64) (Array (_ BitVec 64) (_ BitVec 64)))) (|alloc_0| (Array (_ BitVec 64) (_ BitVec 64))) (|main::1::i| (_ BitVec 64)))
  (=> (and 
    (|inv_3| |main::1::i| |alloc_0| |memor_0|)
       (not (bvsge (select (select |memor_0| (select |alloc_0| (_ bv9363835545496 64))) |main::1::i|) (_ bv0 64)))) false)))

(declare-fun |inv_2| ((Array (_ BitVec 64) (_ BitVec 64)) (Array (_ BitVec 64) (Array (_ BitVec 64) (_ BitVec 64))) ) Bool)

(assert (forall ((|memor_0| (Array (_ BitVec 64) (Array (_ BitVec 64) (_ BitVec 64)))) (|alloc_0| (Array (_ BitVec 64) (_ BitVec 64))) (|main::1::i| (_ BitVec 64)))
  (=> (and 
    (|inv_3| |main::1::i| |alloc_0| |memor_0|)
       (bvsge (select (select |memor_0| (select |alloc_0| (_ bv9363835545496 64))) |main::1::i|) (_ bv0 64))) 
    (|inv_2| |alloc_0| |memor_0|))))

(assert (forall ((|memor_0| (Array (_ BitVec 64) (Array (_ BitVec 64) (_ BitVec 64)))) (|alloc_0| (Array (_ BitVec 64) (_ BitVec 64))))
  (=> 
    (|inv_2| |alloc_0| |memor_0|) 
    (|inv_1| |alloc_0| |memor_0|))))

(assert (forall ((|memor_0| (Array (_ BitVec 64) (Array (_ BitVec 64) (_ BitVec 64)))) (|alloc_0| (Array (_ BitVec 64) (_ BitVec 64))))
  (=> 
    (|inv_1| |alloc_0| |memor_0|) true)))

(check-sat)